c SAT Generator for power-law distributed variable frequencies
c -g u -v 20 -c 91 -k 3 -p 2.750000 -b 3.200000 -f /home/schmidt/Devel/ni-kop-sat/data/ensemble/ruf20-91/ruf20-91-701 -u 1 -U 1 -s 2616535492
p cnf 20 91
-7 17 20 0
-8 12 18 0
-2 10 11 0
13 19 20 0
13 -17 18 0
4 8 15 0
5 12 20 0
1 4 14 0
6 -10 -20 0
-4 -5 -13 0
-11 16 20 0
3 4 -5 0
6 17 20 0
-1 13 -17 0
-2 3 16 0
3 -7 13 0
-5 8 18 0
6 15 19 0
-2 13 20 0
-7 -8 -11 0
-11 13 -17 0
2 -6 9 0
-7 -14 -19 0
3 -8 -16 0
-4 8 -15 0
4 -10 18 0
1 11 13 0
-1 -2 14 0
-2 13 19 0
-1 6 15 0
-7 11 18 0
-3 13 -15 0
-9 10 19 0
-2 -6 16 0
-17 -18 20 0
-1 6 7 0
-3 6 -17 0
-9 -13 -20 0
3 4 20 0
-2 -9 12 0
-1 -12 -16 0
-1 -6 14 0
6 -15 17 0
6 8 -14 0
2 12 19 0
-4 -12 16 0
-3 11 14 0
-5 19 -20 0
17 -19 -20 0
5 -7 -17 0
-5 -7 -14 0
13 -14 -18 0
-3 14 -19 0
-3 -7 19 0
1 -10 -18 0
3 14 20 0
8 -10 -19 0
-5 -13 18 0
-2 -7 -20 0
5 14 -19 0
12 -14 -17 0
7 -10 -17 0
-3 -9 19 0
-1 -4 11 0
11 -17 -20 0
9 -14 17 0
-4 -14 -16 0
4 6 -13 0
-3 -9 12 0
4 10 17 0
1 -10 14 0
2 -8 15 0
3 -9 -13 0
-8 -11 -12 0
1 -15 -20 0
-3 -9 13 0
1 9 13 0
-12 -15 19 0
6 -8 -15 0
8 9 19 0
-9 -15 -17 0
-2 7 17 0
1 -10 19 0
-15 -17 -20 0
6 8 -20 0
12 16 -20 0
-1 -4 18 0
12 13 -20 0
-2 14 18 0
-12 17 -20 0
-3 12 -17 0
